data/solutions/recovery/wellformed/moderate/flexible/wellformed_moderate_instance11/21.log

Log started (V12.6.3.0) Fri Apr 20 20:57:14 2018

New value for default parallel thread count: 1

Problem '/tmp/tmpX8bSMT.pyomo.lp' read.
Read time = 0.00 sec. (0.03 ticks)

Problem name         : /tmp/tmpX8bSMT.pyomo.lp
Objective sense      : Minimize
Variables            :     104  [Nneg: 1,  Binary: 99,  General Integer: 4]
Objective nonzeros   :       1
Linear constraints   :      73  [Less: 36,  Equal: 37]
  Nonzeros           :    2185
  RHS nonzeros       :      67

Variables            : Min LB: 0.000000         Max UB: 1.000000       
Objective nonzeros   : Min   : 1.000000         Max   : 1.000000       
Linear constraints   :
  Nonzeros           : Min   : 1.000000         Max   : 1950.000       
  RHS nonzeros       : Min   : 1.000000         Max   : 4.000000       
Tried aggregator 2 times.
MIP Presolve eliminated 33 rows and 3 columns.
Aggregator did 4 substitutions.
Reduced MIP has 36 rows, 97 columns, and 253 nonzeros.
Reduced MIP has 96 binaries, 1 generals, 0 SOSs, and 0 indicators.
Presolve time = 0.00 sec. (0.76 ticks)
Found incumbent of value 33472.000000 after 0.00 sec. (0.94 ticks)
Probing time = 0.00 sec. (0.07 ticks)
Cover probing fixed 0 vars, tightened 1 bounds.
Tried aggregator 1 time.
Reduced MIP has 36 rows, 97 columns, and 253 nonzeros.
Reduced MIP has 96 binaries, 1 generals, 0 SOSs, and 0 indicators.
Presolve time = 0.00 sec. (0.17 ticks)
Probing time = 0.00 sec. (0.04 ticks)
Clique table members: 32.
MIP emphasis: balance optimality and feasibility.
MIP search method: dynamic search.
Parallel mode: none, using 1 thread.
Root relaxation solution time = 0.00 sec. (0.08 ticks)

        Nodes                                         Cuts/
   Node  Left     Objective  IInf  Best Integer    Best Bound    ItCnt     Gap

*     0+    0                        33472.0000     1950.0000            94.17%
      0     0    11157.3333     4    33472.0000    11157.3333        3   66.67%
*     0+    0                        11883.0000    11157.3333             6.11%
      0     0    11158.0000     6    11883.0000      Fract: 3       14    6.10%
*     0+    0                        11316.0000    11158.0000             1.40%
      0     0    11158.0000     5    11316.0000       Cuts: 8       23    1.40%
      0     0    11158.0000     8    11316.0000       Cuts: 8       30    1.40%
*     0+    0                        11202.0000    11158.0000             0.39%
      0     2    11158.0000     8    11202.0000    11158.0000       30    0.39%
Elapsed time = 0.01 sec. (4.56 ticks, tree = 0.01 MB, solutions = 4)
*   104    50      integral     0    11193.0000    11158.0000      222    0.31%
*   221    47      integral     0    11169.0000    11158.0000      455    0.10%
*  1000   319      integral     0    11166.0000    11158.0000     2411    0.07%
*  2212+  114                        11164.0000    11158.0000             0.05%
*  2212+  113                        11161.0000    11158.0000             0.03%
   3112   136    11158.0000     4    11161.0000    11158.0000     6513    0.03%
   3113   137    11158.0000     4    11161.0000    11158.0000     6515    0.03%
   3114   138    11158.0000     4    11161.0000    11158.0000     6516    0.03%
   3115   139    11158.0000     4    11161.0000    11158.0000     6518    0.03%
   3116   140    11158.0000     4    11161.0000    11158.0000     6520    0.03%
   3117   141    11158.0000     4    11161.0000    11158.0000     6522    0.03%
   3118   142    11158.0000     4    11161.0000    11158.0000     6523    0.03%
   3119   143    11158.0000     4    11161.0000    11158.0000     6525    0.03%
   3120   144    11158.0000     4    11161.0000    11158.0000     6527    0.03%
*  4212+  181                        11159.0000    11158.0000             0.01%

Cover cuts applied:  2
Zero-half cuts applied:  1

Root node processing (before b&c):
  Real time             =    0.01 sec. (4.56 ticks)
Sequential b&c:
  Real time             =    0.80 sec. (378.24 ticks)
                          ------------
Total (root+branch&cut) =    0.82 sec. (382.80 ticks)

Solution pool: 10 solutions saved.

MIP - Integer optimal, tolerance (0.0001/1e-06):  Objective =  1.1159000000e+04
Current MIP best bound =  1.1158000000e+04 (gap = 1, 0.01%)
Solution time =    0.82 sec.  Iterations = 8631  Nodes = 4212 (182)
Deterministic time = 382.80 ticks  (469.34 ticks/sec)


Incumbent solution written to file '/tmp/tmpEPXZEs.cplex.sol'.
